
Gurobi 6.5.2 (win64) logging started 07/22/16 21:11:49


Gurobi 6.5.2 (win64) logging started 07/22/16 21:11:49

Optimize a model with 1251 rows, 588 columns and 3420 nonzeros
Coefficient statistics:
  Matrix range    [6e-08, 1e+03]
  Objective range [1e+00, 1e+00]
  Bounds range    [1e+00, 1e+00]
  RHS range       [6e-06, 1e+03]
Presolve removed 1042 rows and 373 columns
Presolve time: 0.00s
Presolved: 209 rows, 215 columns, 954 nonzeros
Variable types: 215 continuous, 0 integer (0 binary)

Root relaxation: objective 1.642483e+02, 237 iterations, 0.02 seconds

    Nodes    |    Current Node    |     Objective Bounds      |     Work
 Expl Unexpl |  Obj  Depth IntInf | Incumbent    BestBd   Gap | It/Node Time

*    0     0               0     164.2483371  164.24834  0.00%     -    0s

Explored 0 nodes (237 simplex iterations) in 0.02 seconds
Thread count was 8 (of 8 available processors)

Optimal solution found (tolerance 1.00e-04)
Best objective 1.642483370547e+02, best bound 1.642483370547e+02, gap 0.0%

Wrote requested result file 'H1\instance7\\Results7EC_Sol2.lp'

